(declare-fun b_ack!49 () (_ BitVec 64))
(declare-fun a_ack!50 () (_ BitVec 64))
(declare-fun CF_floor ((_ BitVec 64)) (_ FloatingPoint 11 53))
(declare-fun FPCHECK_FSUB_ACCURACY ((_ BitVec 64) (_ BitVec 64)) Bool)
(assert (not (fp.eq ((_ to_fp 11 53) b_ack!49) ((_ to_fp 11 53) #x0000000000000000))))
(assert (not (fp.eq ((_ to_fp 11 53) b_ack!49) ((_ to_fp 11 53) #x0000000000000000))))
(assert (not (fp.gt ((_ to_fp 11 53) a_ack!50) ((_ to_fp 11 53) #x0000000000000000))))
(assert (fp.leq ((_ to_fp 11 53) a_ack!50) ((_ to_fp 11 53) #x0000000000000000)))
(assert (not (fp.eq ((_ to_fp 11 53) a_ack!50) (CF_floor a_ack!50))))
(assert (fp.lt ((_ to_fp 11 53) a_ack!50) ((_ to_fp 11 53) #x0000000000000000)))
(assert (fp.lt (fp.add roundNearestTiesToEven
               ((_ to_fp 11 53) a_ack!50)
               ((_ to_fp 11 53) b_ack!49))
       ((_ to_fp 11 53) #x0000000000000000)))
(assert (FPCHECK_FSUB_ACCURACY #x3ff0000000000000 a_ack!50))

(check-sat)
(exit)
